112614
52,7,82,27,78,5,60,14,68,24,41,54,22,11,2,56,42,59,46,80,71,50,55,6,26,32,15,10,39,81,74,37,1,29,34,58,67,43,21,4,18,23,30,47,20,70,65,35,25,69,61,79,44,45,53,12,17,36,72,63,0,9,28,13,75,66,19,76,57,8,31,73,16,33,48,77,40,38,62,51,64,49,3
